SECTION Graph
Nodes 422
Edges 808
E 1 264 8
E 1 274 1
E 2 13 2
E 2 237 15
E 2 264 1
E 2 274 8
E 3 4 3
E 3 245 15
E 3 264 5
E 4 5 5
E 4 247 15
E 5 6 1
E 5 260 15
E 6 263 15
E 7 8 9
E 7 397 238
E 8 345 327
E 8 396 231
E 9 10 5
E 9 12 8
E 9 261 1
E 10 255 8
E 10 273 1
E 11 12 1
E 11 18 2
E 11 212 15
E 11 261 8
E 12 216 15
E 12 255 5
E 13 232 15
E 13 255 1
E 13 273 8
E 14 17 8
E 14 256 1
E 15 16 1
E 15 191 15
E 16 17 5
E 16 197 15
E 17 18 1
E 17 203 15
E 18 207 15
E 18 256 8
E 19 392 23
E 19 395 2
E 20 23 15
E 20 395 7
E 21 23 7
E 21 387 16
E 21 394 2
E 21 395 15
E 22 23 2
E 22 393 11
E 22 394 7
E 24 26 7
E 24 379 16
E 24 386 2
E 24 388 3
E 25 26 2
E 25 29 10
E 25 386 7
E 26 391 3
E 27 29 7
E 27 370 16
E 27 380 2
E 27 386 10
E 28 29 2
E 28 377 12
E 28 380 7
E 30 32 7
E 30 358 16
E 30 369 1
E 30 371 1
E 31 80 1
E 31 367 7
E 32 80 1
E 32 375 1
E 33 267 9
E 33 276 1
E 34 81 2
E 34 246 6
E 34 251 3
E 34 262 1
E 35 81 1
E 35 250 6
E 35 266 1
E 35 267 1
E 36 38 9
E 36 263 1
E 36 272 5
E 37 82 1
E 37 236 5
E 37 241 1
E 37 260 9
E 38 82 1
E 38 244 1
E 38 254 5
E 39 366 15
E 39 376 2
E 39 381 7
E 39 382 11
E 40 376 7
E 40 379 3
E 40 381 2
E 40 388 16
E 41 43 7
E 41 319 7
E 41 322 2
E 41 347 30
E 42 43 2
E 42 320 10
E 42 322 7
E 43 356 30
E 44 46 7
E 44 306 7
E 44 309 2
E 44 314 6
E 45 46 2
E 45 49 16
E 45 309 7
E 46 318 6
E 47 288 7
E 47 290 2
E 47 300 6
E 47 309 16
E 48 49 2
E 48 271 42
E 48 299 1
E 49 300 1
E 50 308 7
E 50 310 3
E 50 316 7
E 50 317 10
E 51 52 3
E 51 289 13
E 51 293 6
E 51 301 1
E 52 286 22
E 52 305 1
E 52 327 43
E 53 233 8
E 53 242 2
E 53 259 7
E 53 270 14
E 54 55 2
E 54 222 1
E 54 223 1
E 54 227 1
E 55 226 1
E 55 233 1
E 55 252 14
E 56 218 8
E 56 230 3
E 56 239 2
E 56 246 7
E 57 58 3
E 57 169 13
E 57 193 5
E 57 205 1
E 58 173 13
E 58 213 1
E 58 217 2
E 59 83 1
E 59 331 1
E 59 332 1
E 59 341 7
E 60 84 2
E 60 336 1
E 60 338 1
E 60 346 7
E 61 92 2
E 62 92 8
E 62 121 14
E 63 65 9
E 63 326 2
E 63 339 15
E 63 352 26
E 64 65 2
E 64 321 1
E 64 326 9
E 65 342 26
E 66 68 9
E 66 324 1
E 66 325 2
E 66 330 13
E 67 85 1
E 67 286 43
E 67 323 9
E 68 85 1
E 68 321 2
E 69 70 2
E 69 154 14
E 70 160 14
E 70 204 5
E 71 72 1
E 71 192 14
E 71 208 7
E 72 198 14
E 72 249 13
E 72 289 54
E 73 138 3
E 73 144 2
E 73 145 2
E 74 75 2
E 74 152 3
E 74 157 1
E 74 172 7
E 75 162 1
E 75 165 2
E 75 176 7
E 76 89 1
E 76 93 7
E 77 79 7
E 77 91 1
E 77 138 29
E 78 93 1
E 78 94 1
E 79 88 1
E 79 99 1
E 79 149 29
E 80 369 7
E 81 248 6
E 81 265 1
E 82 243 1
E 82 263 9
E 83 84 1
E 83 333 1
E 83 343 7
E 84 335 1
E 84 344 7
E 85 324 9
E 86 87 1
E 86 89 7
E 86 93 1
E 86 96 1
E 87 88 2
E 87 90 7
E 87 97 1
E 88 91 7
E 88 98 1
E 89 90 1
E 90 91 2
E 92 111 15
E 93 95 1
E 94 95 1
E 94 100 7
E 95 96 1
E 95 101 7
E 96 97 1
E 96 103 7
E 97 98 2
E 97 105 7
E 98 99 1
E 98 110 7
E 99 107 5
E 99 112 7
E 100 101 1
E 100 102 1
E 101 103 1
E 101 104 1
E 102 104 1
E 102 117 7
E 103 105 1
E 103 106 1
E 104 106 1
E 104 118 7
E 105 108 1
E 105 110 2
E 106 108 1
E 106 119 7
E 107 109 1
E 107 150 23
E 108 113 2
E 108 120 7
E 109 114 2
E 109 153 23
E 110 112 1
E 110 113 1
E 111 117 3
E 111 123 8
E 112 115 1
E 112 166 29
E 113 115 1
E 113 122 7
E 114 116 1
E 114 158 23
E 115 124 7
E 115 169 29
E 116 152 20
E 116 161 23
E 117 118 1
E 117 125 6
E 118 119 1
E 118 126 6
E 119 120 1
E 119 128 6
E 120 122 2
E 120 131 6
E 121 123 1
E 121 164 22
E 122 124 1
E 122 136 6
E 123 130 3
E 123 167 22
E 124 139 6
E 125 126 1
E 125 127 1
E 126 128 1
E 126 129 1
E 127 129 1
E 127 130 1
E 128 131 1
E 128 132 1
E 129 132 1
E 129 133 1
E 130 133 1
E 131 134 1
E 131 136 2
E 132 134 1
E 132 135 1
E 133 135 1
E 134 137 1
E 134 140 2
E 135 137 1
E 135 146 8
E 136 139 1
E 136 140 1
E 137 142 2
E 137 151 8
E 138 149 7
E 139 141 1
E 139 184 22
E 140 141 1
E 140 142 1
E 141 143 1
E 141 188 22
E 142 143 1
E 142 156 8
E 143 150 5
E 143 159 8
E 144 147 2
E 144 148 2
E 145 148 2
E 145 157 5
E 146 151 1
E 146 175 13
E 147 154 2
E 147 155 2
E 148 155 2
E 148 162 5
E 149 152 1
E 149 157 3
E 150 153 1
E 150 202 22
E 151 156 2
E 151 177 13
E 152 166 7
E 153 158 2
E 153 206 22
E 154 160 2
E 155 160 2
E 155 163 5
E 156 159 1
E 156 185 13
E 157 162 2
E 158 161 1
E 158 211 22
E 159 189 13
E 159 210 22
E 160 168 5
E 161 170 5
E 161 215 22
E 162 163 2
E 163 165 1
E 163 168 2
E 164 167 1
E 164 191 9
E 165 171 2
E 165 182 7
E 166 169 1
E 166 172 3
E 167 178 5
E 167 197 9
E 168 171 1
E 168 204 14
E 169 173 3
E 170 174 3
E 170 228 22
E 171 192 7
E 171 208 14
E 172 173 1
E 172 176 2
E 173 180 2
E 174 195 5
E 174 236 22
E 175 177 1
E 175 178 1
E 176 179 1
E 176 180 1
E 177 181 1
E 177 185 2
E 178 181 1
E 178 203 9
E 179 182 1
E 179 183 1
E 180 183 1
E 180 217 13
E 181 190 2
E 181 207 9
E 182 186 1
E 182 192 2
E 183 186 1
E 183 220 13
E 184 187 1
E 184 188 1
E 185 189 1
E 185 190 1
E 186 198 2
E 186 222 13
E 187 193 1
E 187 194 1
E 188 194 1
E 188 195 1
E 189 196 1
E 189 241 22
E 190 196 1
E 190 212 9
E 191 197 1
E 192 198 1
E 193 199 1
E 194 199 1
E 194 200 1
E 195 200 1
E 195 210 8
E 196 202 5
E 196 216 9
E 197 203 5
E 198 226 13
E 199 201 1
E 199 205 5
E 200 201 1
E 200 214 8
E 201 209 5
E 201 219 8
E 202 206 1
E 202 229 9
E 203 207 1
E 204 208 1
E 204 283 54
E 205 209 1
E 205 213 3
E 206 211 2
E 206 232 9
E 207 212 2
E 209 218 3
E 209 230 8
E 210 214 1
E 210 231 7
E 211 215 1
E 211 237 9
E 212 216 1
E 213 218 1
E 213 221 2
E 214 219 1
E 214 234 7
E 215 228 5
E 215 238 9
E 216 229 5
E 217 220 1
E 217 221 1
E 218 224 2
E 219 230 5
E 219 235 7
E 220 222 1
E 220 223 1
E 221 223 1
E 221 224 1
E 222 226 2
E 223 225 1
E 224 225 1
E 224 239 8
E 225 227 1
E 225 240 8
E 226 249 14
E 227 233 2
E 227 242 8
E 228 236 3
E 228 245 9
E 229 232 1
E 229 255 15
E 230 251 13
E 231 234 1
E 231 241 6
E 232 237 2
E 233 257 14
E 234 235 1
E 234 243 6
E 235 244 6
E 235 246 8
E 236 247 9
E 237 238 1
E 238 245 5
E 238 264 15
E 239 240 1
E 239 248 7
E 240 242 1
E 240 250 7
E 241 243 1
E 242 253 7
E 243 244 1
E 244 251 5
E 245 247 3
E 246 248 2
E 247 260 5
E 248 250 1
E 249 252 1
E 249 277 28
E 250 253 1
E 251 254 1
E 252 257 1
E 252 278 28
E 253 259 2
E 253 266 6
E 254 262 3
E 254 272 9
E 256 261 2
E 257 258 1
E 257 280 28
E 258 270 7
E 258 282 28
E 259 269 6
E 259 290 42
E 260 263 1
E 262 265 2
E 262 275 9
E 265 267 1
E 265 276 9
E 266 268 1
E 266 269 2
E 267 268 1
E 268 271 2
E 269 271 1
E 269 299 42
E 270 287 28
E 272 275 3
E 273 274 2
E 275 276 2
E 277 278 1
E 277 279 2
E 278 280 1
E 278 281 2
E 279 281 1
E 279 291 16
E 280 282 1
E 280 284 2
E 281 284 1
E 281 292 16
E 282 285 2
E 282 287 7
E 283 286 3
E 283 289 9
E 284 285 1
E 284 294 16
E 285 288 7
E 285 296 16
E 287 288 2
E 287 290 7
E 288 303 16
E 289 323 46
E 290 299 6
E 291 292 1
E 291 293 2
E 292 294 1
E 292 295 2
E 293 295 1
E 294 296 1
E 294 297 2
E 295 297 1
E 295 301 6
E 296 298 2
E 296 303 7
E 297 298 1
E 297 302 6
E 298 304 6
E 298 306 7
E 299 300 2
E 301 302 1
E 301 305 3
E 302 304 1
E 302 307 3
E 303 306 2
E 303 309 7
E 304 308 3
E 304 310 7
E 305 307 1
E 306 310 6
E 307 308 1
E 307 311 10
E 308 312 10
E 310 314 7
E 311 312 1
E 311 313 2
E 312 315 2
E 312 317 7
E 313 315 1
E 313 329 30
E 314 316 3
E 314 318 7
E 315 319 7
E 315 332 30
E 316 320 7
E 316 322 10
E 317 319 2
E 317 322 7
E 318 320 3
E 319 341 31
E 321 325 9
E 323 324 1
E 323 327 13
E 324 328 13
E 325 326 1
E 325 334 13
E 326 337 15
E 327 328 1
E 327 331 2
E 328 330 1
E 328 333 2
E 329 331 1
E 329 332 1
E 330 334 2
E 330 335 2
E 331 333 1
E 332 347 14
E 333 335 1
E 334 336 2
E 335 336 2
E 336 337 1
E 337 338 1
E 337 339 2
E 338 340 2
E 339 340 1
E 339 349 9
E 340 363 23
E 341 343 1
E 341 348 7
E 342 345 2
E 342 352 9
E 343 344 1
E 343 350 7
E 344 346 2
E 344 351 7
E 345 355 9
E 346 354 7
E 347 348 1
E 347 356 7
E 348 350 1
E 348 357 7
E 349 353 2
E 349 363 15
E 350 351 1
E 350 358 7
E 351 354 2
E 351 359 7
E 352 355 2
E 352 364 15
E 353 361 10
E 353 365 15
E 354 360 7
E 354 363 12
E 355 366 15
E 356 357 1
E 356 367 16
E 357 358 1
E 357 369 16
E 358 359 1
E 359 360 2
E 359 371 16
E 360 368 12
E 360 372 16
E 361 362 2
E 362 364 3
E 363 365 2
E 363 368 7
E 364 366 2
E 364 376 15
E 365 370 7
E 365 373 10
E 366 383 28
E 367 369 1
E 368 370 2
E 368 380 16
E 370 378 10
E 371 372 2
E 371 375 7
E 372 377 7
E 372 380 12
E 373 374 2
E 373 378 7
E 374 376 3
E 374 379 7
E 375 377 2
E 378 379 2
E 378 386 16
E 381 387 13
E 381 389 16
E 382 384 2
E 382 394 23
E 383 385 2
E 383 390 15
E 384 387 7
E 384 390 15
E 385 392 15
E 385 396 90
E 388 389 2
E 388 391 7
E 389 393 7
E 389 394 11
E 390 392 2
E 390 395 23
E 391 393 2
E 396 397 2
E 1 398 100000
E 2 398 100000
E 3 398 100000
E 4 398 100000
E 5 398 100000
E 6 398 100000
E 7 399 100000
E 8 399 100000
E 9 400 100000
E 10 400 100000
E 11 400 100000
E 12 400 100000
E 13 400 100000
E 14 401 100000
E 15 401 100000
E 16 401 100000
E 17 401 100000
E 18 401 100000
E 19 402 100000
E 20 402 100000
E 21 403 100000
E 22 403 100000
E 23 403 100000
E 24 404 100000
E 25 404 100000
E 26 404 100000
E 27 405 100000
E 28 405 100000
E 29 405 100000
E 30 406 100000
E 31 406 100000
E 32 406 100000
E 33 407 100000
E 34 407 100000
E 35 407 100000
E 36 408 100000
E 37 408 100000
E 38 408 100000
E 39 409 100000
E 40 409 100000
E 41 410 100000
E 42 410 100000
E 43 410 100000
E 44 411 100000
E 45 411 100000
E 46 411 100000
E 47 412 100000
E 48 412 100000
E 49 412 100000
E 50 413 100000
E 51 413 100000
E 52 413 100000
E 53 414 100000
E 54 414 100000
E 55 414 100000
E 56 415 100000
E 57 415 100000
E 58 415 100000
E 59 416 100000
E 60 416 100000
E 61 417 100000
E 62 417 100000
E 63 418 100000
E 64 418 100000
E 65 418 100000
E 66 419 100000
E 67 419 100000
E 68 419 100000
E 69 420 100000
E 70 420 100000
E 71 420 100000
E 72 420 100000
E 73 421 100000
E 74 421 100000
E 75 421 100000
E 76 422 100000
E 77 422 100000
E 78 422 100000
E 79 422 100000
E 80 406 100000
E 81 407 100000
E 82 408 100000
E 83 416 100000
E 84 416 100000
E 85 419 100000
E 86 422 100000
E 87 422 100000
E 88 422 100000
END

SECTION Terminals
Terminals 25
T 398
T 399
T 400
T 401
T 402
T 403
T 404
T 405
T 406
T 407
T 408
T 409
T 410
T 411
T 412
T 413
T 414
T 415
T 416
T 417
T 418
T 419
T 420
T 421
T 422
END

EOF
